SAT
1 -2 -3 -160 4 -5 -6 -49 7 -8 -9 -235 10 -11 -12 -79 13 -14 -15 -55 16 -17 -18 -73 19 -20 -21 -196 22 -23 -24 -52 25 -26 -27 -142 28 -29 -30 -112 31 -32 -33 -130 34 -35 -36 -139 37 -38 -39 -238 40 -41 -42 -181 43 -44 -45 -217 46 -47 -48 -94 50 -51 53 -54 56 -57 58 -59 -60 -103 61 -62 -63 -100 64 -65 -66 -172 67 -68 -69 -127 70 -71 -72 -82 74 -75 76 -77 -78 -109 80 -81 83 -84 85 -86 -87 -211 88 -89 -90 -220 91 -92 -93 -214 95 -96 97 -98 -99 -124 101 -102 104 -105 106 -107 -108 -115 110 -111 113 -114 116 -117 118 -119 -120 -121 122 -123 125 -126 128 -129 131 -132 133 -134 -135 -190 136 -137 -138 -205 140 -141 143 -144 145 -146 -147 -157 148 -149 -150 -169 151 -152 -153 -166 154 -155 -156 -223 158 -159 161 -162 163 -164 -165 -208 167 -168 170 -171 173 -174 175 -176 -177 -202 178 -179 -180 -187 182 -183 184 -185 -186 -199 188 -189 191 -192 193 -194 -195 -232 197 -198 200 -201 203 -204 206 -207 209 -210 212 -213 215 -216 218 -219 221 -222 224 -225 226 -227 -228 -229 230 -231 233 -234 236 -237 239 -240 0